(set-logic QF_UF)
(declare-fun A0 () Bool)
(declare-fun A1 () Bool)
(declare-fun A2 () Bool)
(declare-fun A3 () Bool)
(declare-fun A4 () Bool)
(declare-fun A5 () Bool)
(declare-fun A6 () Bool)
(declare-fun A7 () Bool)
(declare-fun A9 () Bool)
(declare-fun A10 () Bool)
(declare-fun A12 () Bool)
(declare-fun A13 () Bool)
(declare-fun A14 () Bool)
(declare-fun A15 () Bool)
(declare-fun A16 () Bool)
(declare-fun A17 () Bool)
(declare-fun A19 () Bool)
(declare-fun A20 () Bool)
(declare-fun A22 () Bool)
(declare-fun A23 () Bool)
(declare-fun A24 () Bool)
(declare-fun A25 () Bool)
(declare-fun A26 () Bool)
(declare-fun A27 () Bool)
(declare-fun A29 () Bool)
(assert (let ((.def_0 (not A26))) (let ((.def_1 (or A13 .def_0))) (let ((.def_2 (not .def_1))) (let ((.def_3 (not A9))) (let ((.def_4 (not A15))) (let ((.def_5 (= .def_4 .def_3))) (let ((.def_6 (= .def_5 .def_2))) (let ((.def_7 (not A20))) (let ((.def_8 (or A27 .def_7))) (let ((.def_9 (not .def_8))) (let ((.def_10 (not A12))) (let ((.def_11 (not A5))) (let ((.def_12 (and .def_11 .def_10))) (let ((.def_13 (or .def_12 .def_9))) (let ((.def_14 (not .def_13))) (let ((.def_15 (or .def_14 .def_6))) (let ((.def_16 (not .def_15))) (let ((.def_17 (= .def_3 A14))) (let ((.def_18 (not A25))) (let ((.def_19 (and .def_18 A10))) (let ((.def_20 (or .def_19 .def_17))) (let ((.def_21 (not A17))) (let ((.def_22 (not A6))) (let ((.def_23 (= .def_22 .def_21))) (let ((.def_24 (not .def_23))) (let ((.def_25 (not A22))) (let ((.def_26 (and A1 .def_25))) (let ((.def_27 (not .def_26))) (let ((.def_28 (and .def_27 .def_24))) (let ((.def_29 (not .def_28))) (let ((.def_30 (or .def_29 .def_20))) (let ((.def_31 (and .def_30 .def_16))) (let ((.def_32 (not .def_31))) (let ((.def_33 (or .def_21 .def_7))) (let ((.def_34 (not A23))) (let ((.def_35 (= A4 .def_34))) (let ((.def_36 (and .def_35 .def_33))) (let ((.def_37 (not .def_36))) (let ((.def_38 (= A19 A4))) (let ((.def_39 (not .def_38))) (let ((.def_40 (not A3))) (let ((.def_41 (or A20 .def_40))) (let ((.def_42 (or .def_41 .def_39))) (let ((.def_43 (or .def_42 .def_37))) (let ((.def_44 (not .def_43))) (let ((.def_45 (or A0 .def_10))) (let ((.def_46 (not .def_45))) (let ((.def_47 (and A6 .def_18))) (let ((.def_48 (not .def_47))) (let ((.def_49 (or .def_48 .def_46))) (let ((.def_50 (not .def_49))) (let ((.def_51 (and .def_4 .def_18))) (let ((.def_52 (not .def_51))) (let ((.def_53 (and .def_21 A25))) (let ((.def_54 (and .def_53 .def_52))) (let ((.def_55 (not .def_54))) (let ((.def_56 (and .def_55 .def_50))) (let ((.def_57 (not .def_56))) (let ((.def_58 (or .def_57 .def_44))) (let ((.def_59 (not .def_58))) (let ((.def_60 (or .def_59 .def_32))) (let ((.def_61 (and A24 .def_18))) (let ((.def_62 (or .def_3 A9))) (let ((.def_63 (and .def_62 .def_61))) (let ((.def_64 (not .def_63))) (let ((.def_65 (and A6 A22))) (let ((.def_66 (not .def_65))) (let ((.def_67 (not A14))) (let ((.def_68 (or .def_67 A15))) (let ((.def_69 (not .def_68))) (let ((.def_70 (and .def_69 .def_66))) (let ((.def_71 (or .def_70 .def_64))) (let ((.def_72 (not .def_71))) (let ((.def_73 (not A24))) (let ((.def_74 (and A26 .def_73))) (let ((.def_75 (not A2))) (let ((.def_76 (or .def_75 A24))) (let ((.def_77 (or .def_76 .def_74))) (let ((.def_78 (not .def_77))) (let ((.def_79 (and .def_7 .def_34))) (let ((.def_80 (not A7))) (let ((.def_81 (or .def_25 .def_80))) (let ((.def_82 (not .def_81))) (let ((.def_83 (and .def_82 .def_79))) (let ((.def_84 (not .def_83))) (let ((.def_85 (or .def_84 .def_78))) (let ((.def_86 (= .def_85 .def_72))) (let ((.def_87 (not .def_86))) (let ((.def_88 (not A27))) (let ((.def_89 (or .def_88 .def_75))) (let ((.def_90 (or A13 A13))) (let ((.def_91 (not .def_90))) (let ((.def_92 (and .def_91 .def_89))) (let ((.def_93 (not .def_92))) (let ((.def_94 (or A16 A26))) (let ((.def_95 (not A4))) (let ((.def_96 (not A19))) (let ((.def_97 (and .def_96 .def_95))) (let ((.def_98 (not .def_97))) (let ((.def_99 (or .def_98 .def_94))) (let ((.def_100 (not .def_99))) (let ((.def_101 (and .def_100 .def_93))) (let ((.def_102 (or A24 .def_10))) (let ((.def_103 (not A0))) (let ((.def_104 (or A24 .def_103))) (let ((.def_105 (not .def_104))) (let ((.def_106 (or .def_105 .def_102))) (let ((.def_107 (= A24 A17))) (let ((.def_108 (not A29))) (let ((.def_109 (and .def_7 .def_108))) (let ((.def_110 (and .def_109 .def_107))) (let ((.def_111 (or .def_110 .def_106))) (let ((.def_112 (not .def_111))) (let ((.def_113 (or .def_112 .def_101))) (let ((.def_114 (not .def_113))) (let ((.def_115 (or .def_114 .def_87))) (let ((.def_116 (and .def_115 .def_60))) .def_116))))))))))))))))))))))))))))))))))))))))))))))))))))))))))))))))))))))))))))))))))))))))))))))))))))))))))))))))))))))
(check-sat)
